n=30;
m=25;
Ba=4.544933;
Bp=1.413333;
Ha=[[0.000000,0.000000,0.560000,0.560000,0.560000,0.560000,0.560000,0.560000,0.560000,0.560000,0.860000,0.860000,0.860000,0.860000,0.860000,0.860000,0.860000,0.860000,0.860000,0.860000,0.860000,0.860000,0.860000,0.860000,1.300000,0.000000,0.000000,0.000000,0.000000,0.000000],[0.000000,0.000000,0.560000,0.560000,0.560000,0.560000,0.560000,0.560000,0.560000,0.560000,0.860000,0.860000,0.860000,0.860000,0.860000,0.860000,0.860000,0.860000,0.860000,0.860000,0.860000,0.860000,0.860000,0.860000,1.300000,0.000000,0.000000,0.000000,0.000000,0.000000],[0.000000,0.000000,0.560000,0.560000,0.560000,0.560000,0.560000,0.560000,0.560000,0.560000,0.860000,0.860000,0.860000,0.860000,0.860000,0.860000,0.860000,0.860000,0.860000,0.860000,0.860000,0.860000,0.860000,0.860000,1.300000,0.000000,0.000000,0.000000,0.000000,0.000000],[0.000000,0.000000,0.560000,0.560000,0.560000,0.560000,0.560000,0.560000,0.560000,0.560000,0.860000,0.860000,0.860000,0.860000,0.860000,0.860000,0.860000,0.860000,0.860000,0.860000,0.860000,0.860000,0.860000,0.860000,1.300000,0.000000,0.000000,0.000000,0.000000,0.000000],[0.000000,0.000000,0.560000,0.560000,0.560000,0.560000,0.560000,0.560000,0.560000,0.560000,0.860000,0.860000,0.860000,0.860000,0.860000,0.860000,0.860000,0.860000,0.860000,0.860000,0.860000,0.860000,0.860000,0.860000,1.300000,0.000000,0.000000,0.000000,0.000000,0.000000],[0.000000,0.000000,0.560000,0.560000,0.560000,0.560000,0.560000,0.560000,0.560000,0.560000,0.860000,0.860000,0.560000,0.560000,0.560000,0.560000,0.560000,0.560000,0.560000,0.560000,0.560000,0.860000,0.860000,0.860000,1.300000,0.000000,0.000000,0.000000,0.000000,0.000000],[0.000000,0.000000,0.560000,0.560000,0.560000,0.560000,0.560000,0.560000,0.560000,0.560000,0.860000,0.860000,0.560000,0.560000,0.560000,0.560000,0.560000,0.560000,0.560000,0.560000,0.560000,0.860000,0.860000,0.860000,1.300000,0.000000,0.000000,0.000000,0.000000,0.000000],[0.000000,0.000000,0.560000,0.560000,0.560000,0.560000,0.560000,0.560000,0.560000,0.560000,0.860000,0.860000,0.560000,0.560000,0.560000,0.560000,0.560000,0.560000,0.560000,0.560000,0.560000,0.860000,0.860000,0.860000,1.300000,0.000000,0.000000,0.000000,0.000000,0.000000],[0.000000,0.000000,0.560000,0.560000,0.560000,0.560000,0.560000,0.560000,0.560000,0.560000,0.860000,0.860000,0.860000,0.860000,0.860000,0.860000,0.860000,0.860000,0.860000,0.860000,0.860000,0.860000,0.860000,0.860000,1.300000,0.000000,0.000000,0.000000,0.000000,0.000000],[0.000000,0.000000,0.560000,0.560000,0.560000,0.560000,0.560000,0.560000,0.560000,0.560000,0.860000,0.860000,0.860000,0.860000,0.860000,0.860000,0.860000,0.860000,0.860000,0.860000,0.860000,0.860000,0.860000,0.860000,1.300000,0.000000,0.000000,0.000000,0.000000,0.000000],[0.000000,0.000000,0.560000,0.560000,0.560000,0.560000,0.560000,0.560000,0.560000,0.560000,0.860000,0.860000,0.860000,0.860000,0.860000,0.860000,0.860000,0.860000,0.860000,0.860000,0.860000,0.860000,0.860000,0.860000,1.300000,0.000000,0.000000,0.000000,0.000000,0.000000],[0.000000,0.000000,0.560000,0.560000,0.560000,0.560000,0.560000,0.560000,0.560000,0.560000,0.860000,0.860000,0.860000,0.860000,0.860000,0.860000,0.860000,0.860000,0.860000,0.860000,0.860000,0.860000,0.860000,0.860000,0.860000,0.000000,0.000000,0.000000,0.000000,0.000000],[0.000000,0.000000,0.560000,0.560000,0.560000,0.560000,0.560000,0.560000,0.560000,0.560000,0.860000,0.860000,0.860000,0.860000,0.860000,0.860000,0.860000,0.860000,0.860000,0.860000,0.860000,0.860000,0.860000,0.860000,0.860000,0.000000,0.000000,0.000000,0.000000,0.000000],[0.000000,0.000000,0.560000,0.560000,0.560000,0.560000,0.560000,0.560000,0.560000,0.560000,0.860000,0.860000,0.860000,0.860000,0.860000,0.860000,0.860000,0.860000,0.860000,0.860000,0.860000,0.860000,0.860000,0.860000,0.860000,0.000000,0.000000,0.000000,0.000000,0.000000],[0.000000,0.000000,0.560000,0.560000,0.560000,0.560000,0.560000,0.560000,0.560000,0.560000,0.860000,0.860000,0.860000,0.860000,0.860000,0.860000,0.860000,0.860000,0.860000,0.860000,0.860000,0.860000,0.860000,0.860000,0.860000,0.000000,0.000000,0.000000,0.000000,0.000000],[0.054000,0.054000,0.054000,0.054000,0.054000,0.054000,0.054000,0.054000,0.054000,0.054000,0.054000,0.054000,0.054000,0.054000,0.860000,0.860000,0.860000,0.860000,0.860000,0.860000,0.860000,0.860000,0.860000,0.860000,0.860000,0.000000,0.000000,0.000000,0.000000,0.000000],[0.054000,0.054000,0.054000,0.054000,0.054000,0.054000,0.054000,0.054000,0.054000,0.054000,0.054000,0.054000,0.054000,0.054000,0.860000,0.860000,0.860000,0.860000,0.860000,0.860000,0.860000,0.860000,0.860000,0.860000,0.860000,0.000000,0.000000,0.000000,0.000000,0.000000],[0.054000,0.054000,0.054000,0.054000,0.054000,0.054000,0.054000,0.054000,0.054000,0.054000,0.054000,0.054000,0.054000,0.054000,0.860000,0.860000,0.860000,0.860000,0.860000,0.860000,0.860000,0.860000,0.860000,0.860000,0.860000,0.000000,0.000000,0.000000,0.000000,0.000000],[0.054000,0.054000,0.054000,0.054000,0.054000,0.054000,0.054000,0.054000,0.054000,0.054000,0.054000,0.054000,0.054000,0.054000,0.860000,0.860000,0.860000,0.860000,0.860000,0.860000,0.860000,0.860000,0.860000,0.860000,0.860000,0.000000,0.000000,0.000000,0.000000,0.000000],[0.054000,0.054000,0.054000,0.054000,0.054000,0.054000,0.054000,0.054000,0.054000,0.054000,0.054000,0.054000,0.054000,0.054000,0.860000,0.860000,0.860000,0.860000,0.860000,0.860000,0.860000,0.860000,0.860000,0.860000,0.860000,0.000000,0.000000,0.000000,0.000000,0.000000],[0.054000,0.054000,0.054000,0.054000,0.054000,0.054000,0.054000,0.054000,0.054000,0.054000,0.054000,0.054000,0.054000,0.054000,0.860000,0.860000,0.860000,0.860000,0.860000,0.860000,0.860000,0.860000,0.860000,0.860000,0.860000,0.000000,0.000000,0.000000,0.000000,0.000000],[0.054000,0.054000,0.054000,0.054000,0.054000,0.054000,0.054000,0.054000,0.054000,0.054000,0.054000,0.054000,0.054000,0.054000,0.000000,0.000000,0.000000,0.000000,0.000000,0.000000,0.000000,0.000000,0.000000,0.000000,0.000000,0.000000,0.000000,0.000000,0.000000,0.000000],[0.054000,4.300000,4.300000,4.300000,4.300000,4.300000,4.300000,4.300000,4.300000,4.300000,0.054000,0.054000,0.054000,0.054000,0.000000,0.000000,0.000000,0.000000,0.000000,0.000000,0.000000,0.000000,0.000000,0.000000,0.000000,0.000000,0.000000,0.000000,0.000000,0.000000],[0.054000,4.300000,4.300000,4.300000,4.300000,4.300000,4.300000,4.300000,4.300000,4.300000,0.054000,0.054000,0.054000,0.054000,0.000000,0.000000,0.000000,0.000000,0.000000,0.000000,0.000000,0.000000,0.000000,0.000000,0.000000,0.000000,0.000000,0.000000,0.000000,0.000000],[0.054000,4.300000,4.300000,4.300000,4.300000,4.300000,4.300000,4.300000,4.300000,4.300000,0.054000,0.054000,0.054000,0.054000,0.000000,0.000000,0.000000,0.000000,0.000000,0.000000,0.000000,0.000000,0.000000,0.000000,0.000000,0.000000,0.000000,0.000000,0.000000,0.000000]];
Ca=[[1500.000000,1500.000000,0.620000,0.620000,0.620000,0.620000,0.620000,0.620000,0.620000,0.620000,0.560000,0.560000,0.560000,0.560000,0.560000,0.560000,0.560000,0.560000,0.560000,0.560000,0.560000,0.560000,0.560000,0.560000,0.500000,0.000000,0.000000,0.000000,0.000000,0.000000],[1500.000000,1500.000000,0.620000,0.620000,0.620000,0.620000,0.620000,0.620000,0.620000,0.620000,0.560000,0.560000,0.560000,0.560000,0.560000,0.560000,0.560000,0.560000,0.560000,0.560000,0.560000,0.560000,0.560000,0.560000,0.500000,0.000000,0.000000,0.000000,0.000000,0.000000],[1500.000000,1500.000000,0.620000,0.620000,0.620000,0.620000,0.620000,0.620000,0.620000,0.620000,0.560000,0.560000,0.560000,0.560000,0.560000,0.560000,0.560000,0.560000,0.560000,0.560000,0.560000,0.560000,0.560000,0.560000,0.500000,0.000000,0.000000,0.000000,0.000000,0.000000],[1500.000000,1500.000000,0.620000,0.620000,0.620000,0.620000,0.620000,0.620000,0.620000,0.620000,0.560000,0.560000,0.560000,0.560000,0.560000,0.560000,0.560000,0.560000,0.560000,0.560000,0.560000,0.560000,0.560000,0.560000,0.500000,0.000000,0.000000,0.000000,0.000000,0.000000],[1500.000000,1500.000000,0.620000,0.620000,0.620000,0.620000,0.620000,0.620000,0.620000,0.620000,0.560000,0.560000,0.560000,0.560000,0.560000,0.560000,0.560000,0.560000,0.560000,0.560000,0.560000,0.560000,0.560000,0.560000,0.500000,0.000000,0.000000,0.000000,0.000000,0.000000],[1500.000000,1500.000000,0.620000,0.620000,0.620000,0.620000,0.620000,0.620000,0.620000,0.620000,0.560000,0.560000,0.620000,0.620000,0.620000,0.620000,0.620000,0.620000,0.620000,0.620000,0.620000,0.560000,0.560000,0.560000,0.500000,0.000000,0.000000,0.000000,0.000000,0.000000],[1500.000000,1500.000000,0.620000,0.620000,0.620000,0.620000,0.620000,0.620000,0.620000,0.620000,0.560000,0.560000,0.620000,0.620000,0.620000,0.620000,0.620000,0.620000,0.620000,0.620000,0.620000,0.560000,0.560000,0.560000,0.500000,0.000000,0.000000,0.000000,0.000000,0.000000],[1500.000000,1500.000000,0.620000,0.620000,0.620000,0.620000,0.620000,0.620000,0.620000,0.620000,0.560000,0.560000,0.620000,0.620000,0.620000,0.620000,0.620000,0.620000,0.620000,0.620000,0.620000,0.560000,0.560000,0.560000,0.500000,0.000000,0.000000,0.000000,0.000000,0.000000],[1500.000000,1500.000000,0.620000,0.620000,0.620000,0.620000,0.620000,0.620000,0.620000,0.620000,0.560000,0.560000,0.560000,0.560000,0.560000,0.560000,0.560000,0.560000,0.560000,0.560000,0.560000,0.560000,0.560000,0.560000,0.500000,0.000000,0.000000,0.000000,0.000000,0.000000],[1500.000000,1500.000000,0.620000,0.620000,0.620000,0.620000,0.620000,0.620000,0.620000,0.620000,0.560000,0.560000,0.560000,0.560000,0.560000,0.560000,0.560000,0.560000,0.560000,0.560000,0.560000,0.560000,0.560000,0.560000,0.500000,0.000000,0.000000,0.000000,0.000000,0.000000],[1500.000000,1500.000000,0.620000,0.620000,0.620000,0.620000,0.620000,0.620000,0.620000,0.620000,0.560000,0.560000,0.560000,0.560000,0.560000,0.560000,0.560000,0.560000,0.560000,0.560000,0.560000,0.560000,0.560000,0.560000,0.500000,0.000000,0.000000,0.000000,0.000000,0.000000],[1500.000000,1500.000000,0.620000,0.620000,0.620000,0.620000,0.620000,0.620000,0.620000,0.620000,0.560000,0.560000,0.560000,0.560000,0.560000,0.560000,0.560000,0.560000,0.560000,0.560000,0.560000,0.560000,0.560000,0.560000,0.560000,0.000000,0.000000,0.000000,0.000000,0.000000],[1500.000000,1500.000000,0.620000,0.620000,0.620000,0.620000,0.620000,0.620000,0.620000,0.620000,0.560000,0.560000,0.560000,0.560000,0.560000,0.560000,0.560000,0.560000,0.560000,0.560000,0.560000,0.560000,0.560000,0.560000,0.560000,0.000000,0.000000,0.000000,0.000000,0.000000],[1500.000000,1500.000000,0.620000,0.620000,0.620000,0.620000,0.620000,0.620000,0.620000,0.620000,0.560000,0.560000,0.560000,0.560000,0.560000,0.560000,0.560000,0.560000,0.560000,0.560000,0.560000,0.560000,0.560000,0.560000,0.560000,0.000000,0.000000,0.000000,0.000000,0.000000],[1500.000000,1500.000000,0.620000,0.620000,0.620000,0.620000,0.620000,0.620000,0.620000,0.620000,0.560000,0.560000,0.560000,0.560000,0.560000,0.560000,0.560000,0.560000,0.560000,0.560000,0.560000,0.560000,0.560000,0.560000,0.560000,0.000000,0.000000,0.000000,0.000000,0.000000],[0.720000,0.720000,0.720000,0.720000,0.720000,0.720000,0.720000,0.720000,0.720000,0.720000,0.720000,0.720000,0.720000,0.720000,0.560000,0.560000,0.560000,0.560000,0.560000,0.560000,0.560000,0.560000,0.560000,0.560000,0.560000,0.000000,0.000000,0.000000,0.000000,0.000000],[0.720000,0.720000,0.720000,0.720000,0.720000,0.720000,0.720000,0.720000,0.720000,0.720000,0.720000,0.720000,0.720000,0.720000,0.560000,0.560000,0.560000,0.560000,0.560000,0.560000,0.560000,0.560000,0.560000,0.560000,0.560000,0.000000,0.000000,0.000000,0.000000,0.000000],[0.720000,0.720000,0.720000,0.720000,0.720000,0.720000,0.720000,0.720000,0.720000,0.720000,0.720000,0.720000,0.720000,0.720000,0.560000,0.560000,0.560000,0.560000,0.560000,0.560000,0.560000,0.560000,0.560000,0.560000,0.560000,0.000000,0.000000,0.000000,0.000000,0.000000],[0.720000,0.720000,0.720000,0.720000,0.720000,0.720000,0.720000,0.720000,0.720000,0.720000,0.720000,0.720000,0.720000,0.720000,0.560000,0.560000,0.560000,0.560000,0.560000,0.560000,0.560000,0.560000,0.560000,0.560000,0.560000,0.000000,0.000000,0.000000,0.000000,0.000000],[0.720000,0.720000,0.720000,0.720000,0.720000,0.720000,0.720000,0.720000,0.720000,0.720000,0.720000,0.720000,0.720000,0.720000,0.560000,0.560000,0.560000,0.560000,0.560000,0.560000,0.560000,0.560000,0.560000,0.560000,0.560000,0.000000,0.000000,0.000000,0.000000,0.000000],[0.720000,0.720000,0.720000,0.720000,0.720000,0.720000,0.720000,0.720000,0.720000,0.720000,0.720000,0.720000,0.720000,0.720000,0.560000,0.560000,0.560000,0.560000,0.560000,0.560000,0.560000,0.560000,0.560000,0.560000,0.560000,0.000000,0.000000,0.000000,0.000000,0.000000],[0.720000,0.720000,0.720000,0.720000,0.720000,0.720000,0.720000,0.720000,0.720000,0.720000,0.720000,0.720000,0.720000,0.720000,1500.000000,1500.000000,1500.000000,1500.000000,1500.000000,1500.000000,1500.000000,1500.000000,1500.000000,1500.000000,1500.000000,0.000000,0.000000,0.000000,0.000000,0.000000],[0.720000,0.300000,0.300000,0.300000,0.300000,0.300000,0.300000,0.300000,0.300000,0.300000,0.720000,0.720000,0.720000,0.720000,1500.000000,1500.000000,1500.000000,1500.000000,1500.000000,1500.000000,1500.000000,1500.000000,1500.000000,1500.000000,1500.000000,0.000000,0.000000,0.000000,0.000000,0.000000],[0.720000,0.300000,0.300000,0.300000,0.300000,0.300000,0.300000,0.300000,0.300000,0.300000,0.720000,0.720000,0.720000,0.720000,1500.000000,1500.000000,1500.000000,1500.000000,1500.000000,1500.000000,1500.000000,1500.000000,1500.000000,1500.000000,1500.000000,0.000000,0.000000,0.000000,0.000000,0.000000],[0.720000,0.300000,0.300000,0.300000,0.300000,0.300000,0.300000,0.300000,0.300000,0.300000,0.720000,0.720000,0.720000,0.720000,1500.000000,1500.000000,1500.000000,1500.000000,1500.000000,1500.000000,1500.000000,1500.000000,1500.000000,1500.000000,1500.000000,0.000000,0.000000,0.000000,0.000000,0.000000]];
Hp=[[0.000000,0.000000,0.560000,0.560000,0.560000,0.560000,0.560000,0.560000,0.560000,0.560000,0.860000,0.860000,0.860000,0.860000,0.860000,0.860000,0.860000,0.860000,0.860000,0.860000,0.860000,0.860000,0.860000,0.860000,1.300000,0.000000,0.000000,0.000000,0.000000,0.000000],[0.000000,0.000000,0.560000,0.560000,0.560000,0.560000,0.560000,0.560000,0.560000,0.560000,0.860000,0.860000,0.860000,0.860000,0.860000,0.860000,0.860000,0.860000,0.860000,0.860000,0.860000,0.860000,0.860000,0.860000,1.300000,0.000000,0.000000,0.000000,0.000000,0.000000],[0.000000,0.000000,0.560000,0.560000,0.560000,0.560000,0.560000,0.560000,0.560000,0.560000,0.860000,0.860000,0.860000,0.860000,0.860000,0.860000,0.860000,0.860000,0.860000,0.860000,0.860000,0.860000,0.860000,0.860000,1.300000,0.000000,0.000000,0.000000,0.000000,0.000000],[0.000000,0.000000,0.560000,0.560000,0.560000,0.560000,0.560000,0.560000,0.560000,0.560000,0.860000,0.860000,0.860000,0.860000,0.860000,0.860000,0.860000,0.860000,0.860000,0.860000,0.860000,0.860000,0.860000,0.860000,1.300000,0.000000,0.000000,0.000000,0.000000,0.000000],[0.000000,0.000000,0.560000,0.560000,0.560000,0.560000,0.560000,0.560000,0.560000,0.560000,0.860000,0.860000,0.860000,0.860000,0.860000,0.860000,0.860000,0.860000,0.860000,0.860000,0.860000,0.860000,0.860000,0.860000,1.300000,0.000000,0.000000,0.000000,0.000000,0.000000],[0.000000,0.000000,0.560000,0.560000,0.560000,0.560000,0.560000,0.560000,0.560000,0.560000,0.860000,0.860000,0.560000,0.560000,0.560000,0.560000,0.560000,0.560000,0.560000,0.560000,0.560000,0.860000,0.860000,0.860000,1.300000,0.000000,0.000000,0.000000,0.000000,0.000000],[0.000000,0.000000,0.560000,0.560000,0.560000,0.560000,0.560000,0.560000,0.560000,0.560000,0.860000,0.860000,0.560000,0.560000,0.560000,0.560000,0.560000,0.560000,0.560000,0.560000,0.560000,0.860000,0.860000,0.860000,1.300000,0.000000,0.000000,0.000000,0.000000,0.000000],[0.000000,0.000000,0.560000,0.560000,0.560000,0.560000,0.560000,0.560000,0.560000,0.560000,0.860000,0.860000,0.560000,0.560000,0.560000,0.560000,0.560000,0.560000,0.560000,0.560000,0.560000,0.860000,0.860000,0.860000,1.300000,0.000000,0.000000,0.000000,0.000000,0.000000],[0.000000,0.000000,0.560000,0.560000,0.560000,0.560000,0.560000,0.560000,0.560000,0.560000,0.860000,0.860000,0.860000,0.860000,0.860000,0.860000,0.860000,0.860000,0.860000,0.860000,0.860000,0.860000,0.860000,0.860000,1.300000,0.000000,0.000000,0.000000,0.000000,0.000000],[0.000000,0.000000,0.560000,0.560000,0.560000,0.560000,0.560000,0.560000,0.560000,0.560000,0.860000,0.860000,0.860000,0.860000,0.860000,0.860000,0.860000,0.860000,0.860000,0.860000,0.860000,0.860000,0.860000,0.860000,1.300000,0.000000,0.000000,0.000000,0.000000,0.000000],[0.000000,0.000000,0.560000,0.560000,0.560000,0.560000,0.560000,0.560000,0.560000,0.560000,0.860000,0.860000,0.860000,0.860000,0.860000,0.860000,0.860000,0.860000,0.860000,0.860000,0.860000,0.860000,0.860000,0.860000,1.300000,0.000000,0.000000,0.000000,0.000000,0.000000],[0.000000,0.000000,0.560000,0.560000,0.560000,0.560000,0.560000,0.560000,0.560000,0.560000,0.860000,0.860000,0.860000,0.860000,0.860000,0.860000,0.860000,0.860000,0.860000,0.860000,0.860000,0.860000,0.860000,0.860000,0.860000,0.000000,0.000000,0.000000,0.000000,0.000000],[0.000000,0.000000,0.560000,0.560000,0.560000,0.560000,0.560000,0.560000,0.560000,0.560000,0.860000,0.860000,0.860000,0.860000,0.860000,0.860000,0.860000,0.860000,0.860000,0.860000,0.860000,0.860000,0.860000,0.860000,0.860000,0.000000,0.000000,0.000000,0.000000,0.000000],[0.000000,0.000000,0.560000,0.560000,0.560000,0.560000,0.560000,0.560000,0.560000,0.560000,0.860000,0.860000,0.860000,0.860000,0.860000,0.860000,0.860000,0.860000,0.860000,0.860000,0.860000,0.860000,0.860000,0.860000,0.860000,0.000000,0.000000,0.000000,0.000000,0.000000],[0.000000,0.000000,0.560000,0.560000,0.560000,0.560000,0.560000,0.560000,0.560000,0.560000,0.860000,0.860000,0.860000,0.860000,0.860000,0.860000,0.860000,0.860000,0.860000,0.860000,0.860000,0.860000,0.860000,0.860000,0.860000,0.000000,0.000000,0.000000,0.000000,0.000000],[0.054000,0.054000,0.054000,0.054000,0.054000,0.054000,0.054000,0.054000,0.054000,0.054000,0.054000,0.054000,0.054000,0.054000,0.860000,0.860000,0.860000,0.860000,0.860000,0.860000,0.860000,0.860000,0.860000,0.860000,0.860000,0.000000,0.000000,0.000000,0.000000,0.000000],[0.054000,0.054000,0.054000,0.054000,0.054000,0.054000,0.054000,0.054000,0.054000,0.054000,0.054000,0.054000,0.054000,0.054000,0.860000,0.860000,0.860000,0.860000,0.860000,0.860000,0.860000,0.860000,0.860000,0.860000,0.860000,0.000000,0.000000,0.000000,0.000000,0.000000],[0.054000,0.054000,0.054000,0.054000,0.054000,0.054000,0.054000,0.054000,0.054000,0.054000,0.054000,0.054000,0.054000,0.054000,0.860000,0.860000,0.860000,0.860000,0.860000,0.860000,0.860000,0.860000,0.860000,0.860000,0.860000,0.000000,0.000000,0.000000,0.000000,0.000000],[0.054000,0.054000,0.054000,0.054000,0.054000,0.054000,0.054000,0.054000,0.054000,0.054000,0.054000,0.054000,0.054000,0.054000,0.860000,0.860000,0.860000,0.860000,0.860000,0.860000,0.860000,0.860000,0.860000,0.860000,0.860000,0.000000,0.000000,0.000000,0.000000,0.000000],[0.054000,0.054000,0.054000,0.054000,0.054000,0.054000,0.054000,0.054000,0.054000,0.054000,0.054000,0.054000,0.054000,0.054000,0.860000,0.860000,0.860000,0.860000,0.860000,0.860000,0.860000,0.860000,0.860000,0.860000,0.860000,0.000000,0.000000,0.000000,0.000000,0.000000],[0.054000,0.054000,0.054000,0.054000,0.054000,0.054000,0.054000,0.054000,0.054000,0.054000,0.054000,0.054000,0.054000,0.054000,0.860000,0.860000,0.860000,0.860000,0.860000,0.860000,0.860000,0.860000,0.860000,0.860000,0.860000,0.000000,0.000000,0.000000,0.000000,0.000000],[0.054000,0.054000,0.054000,0.054000,0.054000,0.054000,0.054000,0.054000,0.054000,0.054000,0.054000,0.054000,0.054000,0.054000,0.000000,0.000000,0.000000,0.000000,0.000000,0.000000,0.000000,0.000000,0.000000,0.000000,0.000000,0.000000,0.000000,0.000000,0.000000,0.000000],[0.054000,4.300000,4.300000,4.300000,4.300000,4.300000,4.300000,4.300000,4.300000,4.300000,0.054000,0.054000,0.054000,0.054000,0.000000,0.000000,0.000000,0.000000,0.000000,0.000000,0.000000,0.000000,0.000000,0.000000,0.000000,0.000000,0.000000,0.000000,0.000000,0.000000],[0.054000,4.300000,4.300000,4.300000,4.300000,4.300000,4.300000,4.300000,4.300000,4.300000,0.054000,0.054000,0.054000,0.054000,0.000000,0.000000,0.000000,0.000000,0.000000,0.000000,0.000000,0.000000,0.000000,0.000000,0.000000,0.000000,0.000000,0.000000,0.000000,0.000000],[0.054000,4.300000,4.300000,4.300000,4.300000,4.300000,4.300000,4.300000,4.300000,4.300000,0.054000,0.054000,0.054000,0.054000,0.000000,0.000000,0.000000,0.000000,0.000000,0.000000,0.000000,0.000000,0.000000,0.000000,0.000000,0.000000,0.000000,0.000000,0.000000,0.000000]];
Cp=[[1500.000000,1500.000000,0.620000,0.620000,0.620000,0.620000,0.620000,0.620000,0.620000,0.620000,0.560000,0.560000,0.560000,0.560000,0.560000,0.560000,0.560000,0.560000,0.560000,0.560000,0.560000,0.560000,0.560000,0.560000,0.500000,0.000000,0.000000,0.000000,0.000000,0.000000],[1500.000000,1500.000000,0.620000,0.620000,0.620000,0.620000,0.620000,0.620000,0.620000,0.620000,0.560000,0.560000,0.560000,0.560000,0.560000,0.560000,0.560000,0.560000,0.560000,0.560000,0.560000,0.560000,0.560000,0.560000,0.500000,0.000000,0.000000,0.000000,0.000000,0.000000],[1500.000000,1500.000000,0.620000,0.620000,0.620000,0.620000,0.620000,0.620000,0.620000,0.620000,0.560000,0.560000,0.560000,0.560000,0.560000,0.560000,0.560000,0.560000,0.560000,0.560000,0.560000,0.560000,0.560000,0.560000,0.500000,0.000000,0.000000,0.000000,0.000000,0.000000],[1500.000000,1500.000000,0.620000,0.620000,0.620000,0.620000,0.620000,0.620000,0.620000,0.620000,0.560000,0.560000,0.560000,0.560000,0.560000,0.560000,0.560000,0.560000,0.560000,0.560000,0.560000,0.560000,0.560000,0.560000,0.500000,0.000000,0.000000,0.000000,0.000000,0.000000],[1500.000000,1500.000000,0.620000,0.620000,0.620000,0.620000,0.620000,0.620000,0.620000,0.620000,0.560000,0.560000,0.560000,0.560000,0.560000,0.560000,0.560000,0.560000,0.560000,0.560000,0.560000,0.560000,0.560000,0.560000,0.500000,0.000000,0.000000,0.000000,0.000000,0.000000],[1500.000000,1500.000000,0.620000,0.620000,0.620000,0.620000,0.620000,0.620000,0.620000,0.620000,0.560000,0.560000,0.620000,0.620000,0.620000,0.620000,0.620000,0.620000,0.620000,0.620000,0.620000,0.560000,0.560000,0.560000,0.500000,0.000000,0.000000,0.000000,0.000000,0.000000],[1500.000000,1500.000000,0.620000,0.620000,0.620000,0.620000,0.620000,0.620000,0.620000,0.620000,0.560000,0.560000,0.620000,0.620000,0.620000,0.620000,0.620000,0.620000,0.620000,0.620000,0.620000,0.560000,0.560000,0.560000,0.500000,0.000000,0.000000,0.000000,0.000000,0.000000],[1500.000000,1500.000000,0.620000,0.620000,0.620000,0.620000,0.620000,0.620000,0.620000,0.620000,0.560000,0.560000,0.620000,0.620000,0.620000,0.620000,0.620000,0.620000,0.620000,0.620000,0.620000,0.560000,0.560000,0.560000,0.500000,0.000000,0.000000,0.000000,0.000000,0.000000],[1500.000000,1500.000000,0.620000,0.620000,0.620000,0.620000,0.620000,0.620000,0.620000,0.620000,0.560000,0.560000,0.560000,0.560000,0.560000,0.560000,0.560000,0.560000,0.560000,0.560000,0.560000,0.560000,0.560000,0.560000,0.500000,0.000000,0.000000,0.000000,0.000000,0.000000],[1500.000000,1500.000000,0.620000,0.620000,0.620000,0.620000,0.620000,0.620000,0.620000,0.620000,0.560000,0.560000,0.560000,0.560000,0.560000,0.560000,0.560000,0.560000,0.560000,0.560000,0.560000,0.560000,0.560000,0.560000,0.500000,0.000000,0.000000,0.000000,0.000000,0.000000],[1500.000000,1500.000000,0.620000,0.620000,0.620000,0.620000,0.620000,0.620000,0.620000,0.620000,0.560000,0.560000,0.560000,0.560000,0.560000,0.560000,0.560000,0.560000,0.560000,0.560000,0.560000,0.560000,0.560000,0.560000,0.500000,0.000000,0.000000,0.000000,0.000000,0.000000],[1500.000000,1500.000000,0.620000,0.620000,0.620000,0.620000,0.620000,0.620000,0.620000,0.620000,0.560000,0.560000,0.560000,0.560000,0.560000,0.560000,0.560000,0.560000,0.560000,0.560000,0.560000,0.560000,0.560000,0.560000,0.560000,0.000000,0.000000,0.000000,0.000000,0.000000],[1500.000000,1500.000000,0.620000,0.620000,0.620000,0.620000,0.620000,0.620000,0.620000,0.620000,0.560000,0.560000,0.560000,0.560000,0.560000,0.560000,0.560000,0.560000,0.560000,0.560000,0.560000,0.560000,0.560000,0.560000,0.560000,0.000000,0.000000,0.000000,0.000000,0.000000],[1500.000000,1500.000000,0.620000,0.620000,0.620000,0.620000,0.620000,0.620000,0.620000,0.620000,0.560000,0.560000,0.560000,0.560000,0.560000,0.560000,0.560000,0.560000,0.560000,0.560000,0.560000,0.560000,0.560000,0.560000,0.560000,0.000000,0.000000,0.000000,0.000000,0.000000],[1500.000000,1500.000000,0.620000,0.620000,0.620000,0.620000,0.620000,0.620000,0.620000,0.620000,0.560000,0.560000,0.560000,0.560000,0.560000,0.560000,0.560000,0.560000,0.560000,0.560000,0.560000,0.560000,0.560000,0.560000,0.560000,0.000000,0.000000,0.000000,0.000000,0.000000],[0.720000,0.720000,0.720000,0.720000,0.720000,0.720000,0.720000,0.720000,0.720000,0.720000,0.720000,0.720000,0.720000,0.720000,0.560000,0.560000,0.560000,0.560000,0.560000,0.560000,0.560000,0.560000,0.560000,0.560000,0.560000,0.000000,0.000000,0.000000,0.000000,0.000000],[0.720000,0.720000,0.720000,0.720000,0.720000,0.720000,0.720000,0.720000,0.720000,0.720000,0.720000,0.720000,0.720000,0.720000,0.560000,0.560000,0.560000,0.560000,0.560000,0.560000,0.560000,0.560000,0.560000,0.560000,0.560000,0.000000,0.000000,0.000000,0.000000,0.000000],[0.720000,0.720000,0.720000,0.720000,0.720000,0.720000,0.720000,0.720000,0.720000,0.720000,0.720000,0.720000,0.720000,0.720000,0.560000,0.560000,0.560000,0.560000,0.560000,0.560000,0.560000,0.560000,0.560000,0.560000,0.560000,0.000000,0.000000,0.000000,0.000000,0.000000],[0.720000,0.720000,0.720000,0.720000,0.720000,0.720000,0.720000,0.720000,0.720000,0.720000,0.720000,0.720000,0.720000,0.720000,0.560000,0.560000,0.560000,0.560000,0.560000,0.560000,0.560000,0.560000,0.560000,0.560000,0.560000,0.000000,0.000000,0.000000,0.000000,0.000000],[0.720000,0.720000,0.720000,0.720000,0.720000,0.720000,0.720000,0.720000,0.720000,0.720000,0.720000,0.720000,0.720000,0.720000,0.560000,0.560000,0.560000,0.560000,0.560000,0.560000,0.560000,0.560000,0.560000,0.560000,0.560000,0.000000,0.000000,0.000000,0.000000,0.000000],[0.720000,0.720000,0.720000,0.720000,0.720000,0.720000,0.720000,0.720000,0.720000,0.720000,0.720000,0.720000,0.720000,0.720000,0.560000,0.560000,0.560000,0.560000,0.560000,0.560000,0.560000,0.560000,0.560000,0.560000,0.560000,0.000000,0.000000,0.000000,0.000000,0.000000],[0.720000,0.720000,0.720000,0.720000,0.720000,0.720000,0.720000,0.720000,0.720000,0.720000,0.720000,0.720000,0.720000,0.720000,1500.000000,1500.000000,1500.000000,1500.000000,1500.000000,1500.000000,1500.000000,1500.000000,1500.000000,1500.000000,1500.000000,0.000000,0.000000,0.000000,0.000000,0.000000],[0.720000,0.300000,0.300000,0.300000,0.300000,0.300000,0.300000,0.300000,0.300000,0.300000,0.720000,0.720000,0.720000,0.720000,1500.000000,1500.000000,1500.000000,1500.000000,1500.000000,1500.000000,1500.000000,1500.000000,1500.000000,1500.000000,1500.000000,0.000000,0.000000,0.000000,0.000000,0.000000],[0.720000,0.300000,0.300000,0.300000,0.300000,0.300000,0.300000,0.300000,0.300000,0.300000,0.720000,0.720000,0.720000,0.720000,1500.000000,1500.000000,1500.000000,1500.000000,1500.000000,1500.000000,1500.000000,1500.000000,1500.000000,1500.000000,1500.000000,0.000000,0.000000,0.000000,0.000000,0.000000],[0.720000,0.300000,0.300000,0.300000,0.300000,0.300000,0.300000,0.300000,0.300000,0.300000,0.720000,0.720000,0.720000,0.720000,1500.000000,1500.000000,1500.000000,1500.000000,1500.000000,1500.000000,1500.000000,1500.000000,1500.000000,1500.000000,1500.000000,0.000000,0.000000,0.000000,0.000000,0.000000]];
